1635477
54 1 18207
1 19 22804
19 49 8895
49 23 4353
23 60 7498
60 29 6419
29 5 9526
5 40 3130
40 56 3489
56 32 1427
32 42 5759
42 12 4831
12 24 13443
24 61 5437
61 3 12947
3 21 17216
21 30 34374
30 25 1249
25 41 5278
41 6 10602
6 64 32039
64 67 14572
67 38 15200
38 7 28523
7 11 50738
11 66 13370
66 26 57991
26 55 61621
55 34 20835
34 46 36286
46 43 69394
43 22 102153
22 31 39447
31 14 70585
14 52 39276
52 33 101509
33 57 88918
57 18 27906
18 10 28652
10 44 75759
44 50 70964
50 28 10810
28 36 23031
36 59 8563
59 16 10880
16 63 14689
63 2 25131
2 9 17744
9 58 1777
58 15 6904
15 8 6874
8 53 47235
53 37 6554
37 62 30446
62 39 8740
39 51 11004
51 35 8926
35 68 19070
68 17 43285
17 27 1445
27 45 8214
45 65 16726
65 48 17626
48 4 7248
4 20 4440
20 47 12843
47 13 9114
13 54 13536
